(set-option :produce-interpolants true)
(set-option :produce-unsat-cores true)
(set-option :simplify-interpolants true)
(set-logic QF_UFLIRA)
(set-option :verbosity 2)
(declare-fun $sig () Int)
(declare-fun $ignition () Bool)
(declare-fun $reset_flag () Bool)
(declare-fun $p1 () Bool)
(declare-fun $start_bt_val~0.start_bt () Bool)
(declare-fun $start_bt_val~0.launch_bt () Bool)
(declare-fun $start_bt_val~0.reset_flag () Bool)
(declare-fun $start_bt_val~0.start_bt_out () Bool)
(declare-fun $launch_bt_val~0.start_bt () Bool)
(declare-fun $launch_bt_val~0.launch_bt () Bool)
(declare-fun $launch_bt_val~0.reset_flag () Bool)
(declare-fun $launch_bt_val~0.launch_bt_out () Bool)
(declare-fun %init () Bool)
(declare-fun %assertions () Bool)
(declare-fun $sig- () Int)
(declare-fun $ignition- () Bool)
(declare-fun $reset_flag- () Bool)
(declare-fun $p1- () Bool)
(declare-fun $start_bt_val~0.start_bt- () Bool)
(declare-fun $start_bt_val~0.launch_bt- () Bool)
(declare-fun $start_bt_val~0.reset_flag- () Bool)
(declare-fun $start_bt_val~0.start_bt_out- () Bool)
(declare-fun $launch_bt_val~0.start_bt- () Bool)
(declare-fun $launch_bt_val~0.launch_bt- () Bool)
(declare-fun $launch_bt_val~0.reset_flag- () Bool)
(declare-fun $launch_bt_val~0.launch_bt_out- () Bool)
(declare-fun %init- () Bool)
(declare-fun %assertions- () Bool)
(declare-fun |$sig-'| () Int)
(declare-fun |$ignition-'| () Bool)
(declare-fun |$reset_flag-'| () Bool)
(declare-fun |$p1-'| () Bool)
(declare-fun |$start_bt_val~0.start_bt-'| () Bool)
(declare-fun |$start_bt_val~0.launch_bt-'| () Bool)
(declare-fun |$start_bt_val~0.reset_flag-'| () Bool)
(declare-fun |$start_bt_val~0.start_bt_out-'| () Bool)
(declare-fun |$launch_bt_val~0.start_bt-'| () Bool)
(declare-fun |$launch_bt_val~0.launch_bt-'| () Bool)
(declare-fun |$launch_bt_val~0.reset_flag-'| () Bool)
(declare-fun |$launch_bt_val~0.launch_bt_out-'| () Bool)
(declare-fun |%init-'| () Bool)
(declare-fun |%assertions-'| () Bool)
(declare-fun |$sig'| () Int)
(declare-fun |$ignition'| () Bool)
(declare-fun |$reset_flag'| () Bool)
(declare-fun |$p1'| () Bool)
(declare-fun |$start_bt_val~0.start_bt'| () Bool)
(declare-fun |$start_bt_val~0.launch_bt'| () Bool)
(declare-fun |$start_bt_val~0.reset_flag'| () Bool)
(declare-fun |$start_bt_val~0.start_bt_out'| () Bool)
(declare-fun |$launch_bt_val~0.start_bt'| () Bool)
(declare-fun |$launch_bt_val~0.launch_bt'| () Bool)
(declare-fun |$launch_bt_val~0.reset_flag'| () Bool)
(declare-fun |$launch_bt_val~0.launch_bt_out'| () Bool)
(declare-fun |%init'| () Bool)
(declare-fun |%assertions'| () Bool)
(define-fun T (($sig Int) ($ignition Bool) ($reset_flag Bool) ($p1 Bool) ($start_bt_val~0.start_bt Bool) ($start_bt_val~0.launch_bt Bool) ($start_bt_val~0.reset_flag Bool) ($start_bt_val~0.start_bt_out Bool) ($launch_bt_val~0.start_bt Bool) ($launch_bt_val~0.launch_bt Bool) ($launch_bt_val~0.reset_flag Bool) ($launch_bt_val~0.launch_bt_out Bool) (%init Bool) (%assertions Bool) (|$sig'| Int) (|$ignition'| Bool) (|$reset_flag'| Bool) (|$p1'| Bool) (|$start_bt_val~0.start_bt'| Bool) (|$start_bt_val~0.launch_bt'| Bool) (|$start_bt_val~0.reset_flag'| Bool) (|$start_bt_val~0.start_bt_out'| Bool) (|$launch_bt_val~0.start_bt'| Bool) (|$launch_bt_val~0.launch_bt'| Bool) (|$launch_bt_val~0.reset_flag'| Bool) (|$launch_bt_val~0.launch_bt_out'| Bool) (|%init'| Bool) (|%assertions'| Bool)) Bool (and (= |$ignition'| (and (not %init) $launch_bt_val~0.launch_bt_out)) (= |$reset_flag'| (and (not %init) $ignition)) (= |$p1'| (=> |$launch_bt_val~0.launch_bt_out'| |$start_bt_val~0.start_bt_out'|)) (= |$start_bt_val~0.start_bt'| (and (not %init) $start_bt_val~0.start_bt_out)) (= |$start_bt_val~0.launch_bt'| (and (not %init) $launch_bt_val~0.launch_bt_out)) (= |$start_bt_val~0.reset_flag'| (and (not %init) $reset_flag)) (= |$start_bt_val~0.start_bt_out'| (and (not %init) (not |$start_bt_val~0.reset_flag'|) (or (and (and (not $start_bt_val~0.start_bt) (not $start_bt_val~0.launch_bt)) (= |$sig'| 0)) $start_bt_val~0.start_bt))) (= |$launch_bt_val~0.start_bt'| (and (not %init) $start_bt_val~0.start_bt_out)) (= |$launch_bt_val~0.launch_bt'| (and (not %init) $launch_bt_val~0.launch_bt_out)) (= |$launch_bt_val~0.reset_flag'| (and (not %init) $reset_flag)) (= |$launch_bt_val~0.launch_bt_out'| (and (not %init) (not |$launch_bt_val~0.reset_flag'|) (or (and (and $launch_bt_val~0.start_bt (not $launch_bt_val~0.launch_bt)) (= |$sig'| 1)) $launch_bt_val~0.launch_bt))) (= |%assertions'| (or %init %assertions)) (<= 0 $sig) (<= $sig 2) (<= 0 |$sig'|) (<= |$sig'| 2) (not |%init'|)))
(assert (! (T $sig- $ignition- $reset_flag- $p1- $start_bt_val~0.start_bt- $start_bt_val~0.launch_bt- $start_bt_val~0.reset_flag- $start_bt_val~0.start_bt_out- $launch_bt_val~0.start_bt- $launch_bt_val~0.launch_bt- $launch_bt_val~0.reset_flag- $launch_bt_val~0.launch_bt_out- %init- %assertions- |$sig-'| |$ignition-'| |$reset_flag-'| |$p1-'| |$start_bt_val~0.start_bt-'| |$start_bt_val~0.launch_bt-'| |$start_bt_val~0.reset_flag-'| |$start_bt_val~0.start_bt_out-'| |$launch_bt_val~0.start_bt-'| |$launch_bt_val~0.launch_bt-'| |$launch_bt_val~0.reset_flag-'| |$launch_bt_val~0.launch_bt_out-'| |%init-'| |%assertions-'|) :named abstract0))
